NAME : sgb128.23773.tour
COMMENT : Cost = 0_23773
COMMENT : Found by LKH [Keld Helsgaun] Thu Nov 16 20:48:32 2017
TYPE : TOUR
DIMENSION : 142
TOUR_SECTION
1
72
129
42
130
89
131
94
132
120
133
58
134
74
135
96
136
22
137
54
138
15
139
105
140
38
11
29
121
69
71
48
70
20
111
51
100
85
32
56
44
77
36
16
68
127
81
18
115
75
112
5
108
87
114
125
118
97
57
37
84
106
14
101
123
102
47
83
25
122
7
8
99
9
39
6
49
50
34
31
103
78
12
35
126
107
40
61
117
93
4
90
30
92
64
124
13
59
3
65
141
28
43
80
21
52
104
73
109
55
119
113
26
86
98
88
110
60
41
67
63
95
116
10
2
76
33
53
17
27
19
46
62
24
79
45
82
23
66
128
142
91
-1
EOF
